\ Model MTZ_MODEL
\ LP format - for model browsing. Use MPS format to capture full model detail.
Minimize
  p[0,1] + p[0,2] + p[0,3] + p[0,4] + p[0,5] + p[1,0] + p[1,2] + p[1,3]
   + p[1,4] + p[1,5] + p[2,0] + p[2,1] + p[2,3] + p[2,4] + p[2,5] + p[3,0]
   + p[3,1] + p[3,2] + p[3,4] + p[3,5] + p[4,0] + p[4,1] + p[4,2] + p[4,3]
   + p[4,5] + p[5,0] + p[5,1] + p[5,2] + p[5,3] + p[5,4] + dc[0] + dc[1]
   + dc[2] + dc[3] + dc[4] + dc[5]
Subject To
 p2: p[0,1] - 8.621396674067084 z[0,1] >= 0
 p3: p[0,1] - 40.49985086017473 z[0,1] - dcc[0,1] >= -40.49985086017473
 R2: dcc[0,1] <= 40.49985086017473
 R3: x[0,1,0] - x[1,0,0] + dif[0,1,0] >= 0
 R4: - x[0,1,0] + x[1,0,0] + dif[0,1,0] >= 0
 R5: x[0,1,1] - x[1,0,1] + dif[0,1,1] >= 0
 R6: - x[0,1,1] + x[1,0,1] + dif[0,1,1] >= 0
 p2: p[0,2] - 55.80221453591534 z[0,2] >= 0
 p3: p[0,2] - 87.96991046460752 z[0,2] - dcc[0,2] >= -87.96991046460752
 R9: dcc[0,2] <= 87.96991046460752
 R10: x[0,1,0] - x[2,0,0] + dif[0,2,0] >= 0
 R11: - x[0,1,0] + x[2,0,0] + dif[0,2,0] >= 0
 R12: x[0,1,1] - x[2,0,1] + dif[0,2,1] >= 0
 R13: - x[0,1,1] + x[2,0,1] + dif[0,2,1] >= 0
 p2: p[0,3] - 59.52337961680198 z[0,3] >= 0
 p3: p[0,3] - 91.89598261688531 z[0,3] - dcc[0,3] >= -91.89598261688531
 R16: dcc[0,3] <= 91.89598261688531
 R17: x[0,1,0] - x[3,0,0] + dif[0,3,0] >= 0
 R18: - x[0,1,0] + x[3,0,0] + dif[0,3,0] >= 0
 R19: x[0,1,1] - x[3,0,1] + dif[0,3,1] >= 0
 R20: - x[0,1,1] + x[3,0,1] + dif[0,3,1] >= 0
 p2: p[0,4] - 1.563777158587772 z[0,4] >= 0
 p3: p[0,4] - 19.81790296940449 z[0,4] - dcc[0,4] >= -19.81790296940449
 R23: dcc[0,4] <= 19.81790296940449
 R24: x[0,1,0] - x[4,0,0] + dif[0,4,0] >= 0
 R25: - x[0,1,0] + x[4,0,0] + dif[0,4,0] >= 0
 R26: x[0,1,1] - x[4,0,1] + dif[0,4,1] >= 0
 R27: - x[0,1,1] + x[4,0,1] + dif[0,4,1] >= 0
 p2: p[0,5] - 2.304140071851783 z[0,5] >= 0
 p3: p[0,5] - 20.888744358551 z[0,5] - dcc[0,5] >= -20.888744358551
 R30: dcc[0,5] <= 20.888744358551
 R31: x[0,1,0] - x[5,0,0] + dif[0,5,0] >= 0
 R32: - x[0,1,0] + x[5,0,0] + dif[0,5,0] >= 0
 R33: x[0,1,1] - x[5,0,1] + dif[0,5,1] >= 0
 R34: - x[0,1,1] + x[5,0,1] + dif[0,5,1] >= 0
 p2: p[1,0] - 8.621396674067084 z[1,0] >= 0
 p3: p[1,0] - 40.49985086017473 z[1,0] - dcc[1,0] >= -40.49985086017473
 R37: dcc[1,0] <= 40.49985086017473
 R38: - x[0,0,0] + x[1,1,0] + dif[1,0,0] >= 0
 R39: x[0,0,0] - x[1,1,0] + dif[1,0,0] >= 0
 R40: - x[0,0,1] + x[1,1,1] + dif[1,0,1] >= 0
 R41: x[0,0,1] - x[1,1,1] + dif[1,0,1] >= 0
 p2: p[1,2] - 58.2804107527671 z[1,2] >= 0
 p3: p[1,2] - 91.81038704079646 z[1,2] - dcc[1,2] >= -91.81038704079646
 R44: dcc[1,2] <= 91.81038704079646
 R45: x[1,1,0] - x[2,0,0] + dif[1,2,0] >= 0
 R46: - x[1,1,0] + x[2,0,0] + dif[1,2,0] >= 0
 R47: x[1,1,1] - x[2,0,1] + dif[1,2,1] >= 0
 R48: - x[1,1,1] + x[2,0,1] + dif[1,2,1] >= 0
 p2: p[1,3] - 55.06446209030456 z[1,3] >= 0
 p3: p[1,3] - 87.88975852445067 z[1,3] - dcc[1,3] >= -87.88975852445067
 R51: dcc[1,3] <= 87.88975852445067
 R52: x[1,1,0] - x[3,0,0] + dif[1,3,0] >= 0
 R53: - x[1,1,0] + x[3,0,0] + dif[1,3,0] >= 0
 R54: x[1,1,1] - x[3,0,1] + dif[1,3,1] >= 0
 R55: - x[1,1,1] + x[3,0,1] + dif[1,3,1] >= 0
 p2: p[1,4] - 7.884973424787798 z[1,4] >= 0
 p3: p[1,4] - 39.77241657580193 z[1,4] - dcc[1,4] >= -39.77241657580193
 R58: dcc[1,4] <= 39.77241657580193
 R59: x[1,1,0] - x[4,0,0] + dif[1,4,0] >= 0
 R60: - x[1,1,0] + x[4,0,0] + dif[1,4,0] >= 0
 R61: x[1,1,1] - x[4,0,1] + dif[1,4,1] >= 0
 R62: - x[1,1,1] + x[4,0,1] + dif[1,4,1] >= 0
 p2: p[1,5] - 10.80325768411435 z[1,5] >= 0
 p3: p[1,5] - 39.83726502942115 z[1,5] - dcc[1,5] >= -39.83726502942115
 R65: dcc[1,5] <= 39.83726502942115
 R66: x[1,1,0] - x[5,0,0] + dif[1,5,0] >= 0
 R67: - x[1,1,0] + x[5,0,0] + dif[1,5,0] >= 0
 R68: x[1,1,1] - x[5,0,1] + dif[1,5,1] >= 0
 R69: - x[1,1,1] + x[5,0,1] + dif[1,5,1] >= 0
 p2: p[2,0] - 55.80221453591534 z[2,0] >= 0
 p3: p[2,0] - 87.96991046460752 z[2,0] - dcc[2,0] >= -87.96991046460752
 R72: dcc[2,0] <= 87.96991046460752
 R73: - x[0,0,0] + x[2,1,0] + dif[2,0,0] >= 0
 R74: x[0,0,0] - x[2,1,0] + dif[2,0,0] >= 0
 R75: - x[0,0,1] + x[2,1,1] + dif[2,0,1] >= 0
 R76: x[0,0,1] - x[2,1,1] + dif[2,0,1] >= 0
 p2: p[2,1] - 58.2804107527671 z[2,1] >= 0
 p3: p[2,1] - 91.81038704079646 z[2,1] - dcc[2,1] >= -91.81038704079646
 R79: dcc[2,1] <= 91.81038704079646
 R80: - x[1,0,0] + x[2,1,0] + dif[2,1,0] >= 0
 R81: x[1,0,0] - x[2,1,0] + dif[2,1,0] >= 0
 R82: - x[1,0,1] + x[2,1,1] + dif[2,1,1] >= 0
 R83: x[1,0,1] - x[2,1,1] + dif[2,1,1] >= 0
 p2: p[2,3] - 5.537816999691597 z[2,3] >= 0
 p3: p[2,3] - 39.28742732206806 z[2,3] - dcc[2,3] >= -39.28742732206806
 R86: dcc[2,3] <= 39.28742732206806
 R87: x[2,1,0] - x[3,0,0] + dif[2,3,0] >= 0
 R88: - x[2,1,0] + x[3,0,0] + dif[2,3,0] >= 0
 R89: x[2,1,1] - x[3,0,1] + dif[2,3,1] >= 0
 R90: - x[2,1,1] + x[3,0,1] + dif[2,3,1] >= 0
 p2: p[2,4] - 51.0817404723602 z[2,4] >= 0
 p3: p[2,4] - 83.85129426151508 z[2,4] - dcc[2,4] >= -83.85129426151508
 R93: dcc[2,4] <= 83.85129426151508
 R94: x[2,1,0] - x[4,0,0] + dif[2,4,0] >= 0
 R95: - x[2,1,0] + x[4,0,0] + dif[2,4,0] >= 0
 R96: x[2,1,1] - x[4,0,1] + dif[2,4,1] >= 0
 R97: - x[2,1,1] + x[4,0,1] + dif[2,4,1] >= 0
 p2: p[2,5] - 50.15392451700031 z[2,5] >= 0
 p3: p[2,5] - 81.00500978603522 z[2,5] - dcc[2,5] >= -81.00500978603522
 R100: dcc[2,5] <= 81.00500978603522
 R101: x[2,1,0] - x[5,0,0] + dif[2,5,0] >= 0
 R102: - x[2,1,0] + x[5,0,0] + dif[2,5,0] >= 0
 R103: x[2,1,1] - x[5,0,1] + dif[2,5,1] >= 0
 R104: - x[2,1,1] + x[5,0,1] + dif[2,5,1] >= 0
 p2: p[3,0] - 59.52337961680198 z[3,0] >= 0
 p3: p[3,0] - 91.89598261688531 z[3,0] - dcc[3,0] >= -91.89598261688531
 R107: dcc[3,0] <= 91.89598261688531
 R108: - x[0,0,0] + x[3,1,0] + dif[3,0,0] >= 0
 R109: x[0,0,0] - x[3,1,0] + dif[3,0,0] >= 0
 R110: - x[0,0,1] + x[3,1,1] + dif[3,0,1] >= 0
 R111: x[0,0,1] - x[3,1,1] + dif[3,0,1] >= 0
 p2: p[3,1] - 55.06446209030456 z[3,1] >= 0
 p3: p[3,1] - 87.88975852445067 z[3,1] - dcc[3,1] >= -87.88975852445067
 R114: dcc[3,1] <= 87.88975852445067
 R115: - x[1,0,0] + x[3,1,0] + dif[3,1,0] >= 0
 R116: x[1,0,0] - x[3,1,0] + dif[3,1,0] >= 0
 R117: - x[1,0,1] + x[3,1,1] + dif[3,1,1] >= 0
 R118: x[1,0,1] - x[3,1,1] + dif[3,1,1] >= 0
 p2: p[3,2] - 5.537816999691597 z[3,2] >= 0
 p3: p[3,2] - 39.28742732206806 z[3,2] - dcc[3,2] >= -39.28742732206806
 R121: dcc[3,2] <= 39.28742732206806
 R122: - x[2,0,0] + x[3,1,0] + dif[3,2,0] >= 0
 R123: x[2,0,0] - x[3,1,0] + dif[3,2,0] >= 0
 R124: - x[2,0,1] + x[3,1,1] + dif[3,2,1] >= 0
 R125: x[2,0,1] - x[3,1,1] + dif[3,2,1] >= 0
 p2: p[3,4] - 55.80751369310866 z[3,4] >= 0
 p3: p[3,4] - 88.85387842829904 z[3,4] - dcc[3,4] >= -88.85387842829904
 R128: dcc[3,4] <= 88.85387842829904
 R129: x[3,1,0] - x[4,0,0] + dif[3,4,0] >= 0
 R130: - x[3,1,0] + x[4,0,0] + dif[3,4,0] >= 0
 R131: x[3,1,1] - x[4,0,1] + dif[3,4,1] >= 0
 R132: - x[3,1,1] + x[4,0,1] + dif[3,4,1] >= 0
 p2: p[3,5] - 55.62109547260096 z[3,5] >= 0
 p3: p[3,5] - 85.98164484176554 z[3,5] - dcc[3,5] >= -85.98164484176554
 R135: dcc[3,5] <= 85.98164484176554
 R136: x[3,1,0] - x[5,0,0] + dif[3,5,0] >= 0
 R137: - x[3,1,0] + x[5,0,0] + dif[3,5,0] >= 0
 R138: x[3,1,1] - x[5,0,1] + dif[3,5,1] >= 0
 R139: - x[3,1,1] + x[5,0,1] + dif[3,5,1] >= 0
 p2: p[4,0] - 1.563777158587772 z[4,0] >= 0
 p3: p[4,0] - 19.81790296940449 z[4,0] - dcc[4,0] >= -19.81790296940449
 R142: dcc[4,0] <= 19.81790296940449
 R143: - x[0,0,0] + x[4,1,0] + dif[4,0,0] >= 0
 R144: x[0,0,0] - x[4,1,0] + dif[4,0,0] >= 0
 R145: - x[0,0,1] + x[4,1,1] + dif[4,0,1] >= 0
 R146: x[0,0,1] - x[4,1,1] + dif[4,0,1] >= 0
 p2: p[4,1] - 7.884973424787798 z[4,1] >= 0
 p3: p[4,1] - 39.77241657580193 z[4,1] - dcc[4,1] >= -39.77241657580193
 R149: dcc[4,1] <= 39.77241657580193
 R150: - x[1,0,0] + x[4,1,0] + dif[4,1,0] >= 0
 R151: x[1,0,0] - x[4,1,0] + dif[4,1,0] >= 0
 R152: - x[1,0,1] + x[4,1,1] + dif[4,1,1] >= 0
 R153: x[1,0,1] - x[4,1,1] + dif[4,1,1] >= 0
 p2: p[4,2] - 51.0817404723602 z[4,2] >= 0
 p3: p[4,2] - 83.85129426151508 z[4,2] - dcc[4,2] >= -83.85129426151508
 R156: dcc[4,2] <= 83.85129426151508
 R157: - x[2,0,0] + x[4,1,0] + dif[4,2,0] >= 0
 R158: x[2,0,0] - x[4,1,0] + dif[4,2,0] >= 0
 R159: - x[2,0,1] + x[4,1,1] + dif[4,2,1] >= 0
 R160: x[2,0,1] - x[4,1,1] + dif[4,2,1] >= 0
 p2: p[4,3] - 55.80751369310866 z[4,3] >= 0
 p3: p[4,3] - 88.85387842829904 z[4,3] - dcc[4,3] >= -88.85387842829904
 R163: dcc[4,3] <= 88.85387842829904
 R164: - x[3,0,0] + x[4,1,0] + dif[4,3,0] >= 0
 R165: x[3,0,0] - x[4,1,0] + dif[4,3,0] >= 0
 R166: - x[3,0,1] + x[4,1,1] + dif[4,3,1] >= 0
 R167: x[3,0,1] - x[4,1,1] + dif[4,3,1] >= 0
 p2: p[4,5] - 0.9003494362460625 z[4,5] >= 0
 p3: p[4,5] - 17.7692616840244 z[4,5] - dcc[4,5] >= -17.7692616840244
 R170: dcc[4,5] <= 17.7692616840244
 R171: x[4,1,0] - x[5,0,0] + dif[4,5,0] >= 0
 R172: - x[4,1,0] + x[5,0,0] + dif[4,5,0] >= 0
 R173: x[4,1,1] - x[5,0,1] + dif[4,5,1] >= 0
 R174: - x[4,1,1] + x[5,0,1] + dif[4,5,1] >= 0
 p2: p[5,0] - 2.304140071851783 z[5,0] >= 0
 p3: p[5,0] - 20.888744358551 z[5,0] - dcc[5,0] >= -20.888744358551
 R177: dcc[5,0] <= 20.888744358551
 R178: - x[0,0,0] + x[5,1,0] + dif[5,0,0] >= 0
 R179: x[0,0,0] - x[5,1,0] + dif[5,0,0] >= 0
 R180: - x[0,0,1] + x[5,1,1] + dif[5,0,1] >= 0
 R181: x[0,0,1] - x[5,1,1] + dif[5,0,1] >= 0
 p2: p[5,1] - 10.80325768411435 z[5,1] >= 0
 p3: p[5,1] - 39.83726502942115 z[5,1] - dcc[5,1] >= -39.83726502942115
 R184: dcc[5,1] <= 39.83726502942115
 R185: - x[1,0,0] + x[5,1,0] + dif[5,1,0] >= 0
 R186: x[1,0,0] - x[5,1,0] + dif[5,1,0] >= 0
 R187: - x[1,0,1] + x[5,1,1] + dif[5,1,1] >= 0
 R188: x[1,0,1] - x[5,1,1] + dif[5,1,1] >= 0
 p2: p[5,2] - 50.15392451700031 z[5,2] >= 0
 p3: p[5,2] - 81.00500978603522 z[5,2] - dcc[5,2] >= -81.00500978603522
 R191: dcc[5,2] <= 81.00500978603522
 R192: - x[2,0,0] + x[5,1,0] + dif[5,2,0] >= 0
 R193: x[2,0,0] - x[5,1,0] + dif[5,2,0] >= 0
 R194: - x[2,0,1] + x[5,1,1] + dif[5,2,1] >= 0
 R195: x[2,0,1] - x[5,1,1] + dif[5,2,1] >= 0
 p2: p[5,3] - 55.62109547260096 z[5,3] >= 0
 p3: p[5,3] - 85.98164484176554 z[5,3] - dcc[5,3] >= -85.98164484176554
 R198: dcc[5,3] <= 85.98164484176554
 R199: - x[3,0,0] + x[5,1,0] + dif[5,3,0] >= 0
 R200: x[3,0,0] - x[5,1,0] + dif[5,3,0] >= 0
 R201: - x[3,0,1] + x[5,1,1] + dif[5,3,1] >= 0
 R202: x[3,0,1] - x[5,1,1] + dif[5,3,1] >= 0
 p2: p[5,4] - 0.9003494362460625 z[5,4] >= 0
 p3: p[5,4] - 17.7692616840244 z[5,4] - dcc[5,4] >= -17.7692616840244
 R205: dcc[5,4] <= 17.7692616840244
 R206: - x[4,0,0] + x[5,1,0] + dif[5,4,0] >= 0
 R207: x[4,0,0] - x[5,1,0] + dif[5,4,0] >= 0
 R208: - x[4,0,1] + x[5,1,1] + dif[5,4,1] >= 0
 R209: x[4,0,1] - x[5,1,1] + dif[5,4,1] >= 0
 R210: z[0,1] + z[0,2] + z[0,3] + z[0,4] + z[0,5] = 1
 R211: z[1,0] + z[1,2] + z[1,3] + z[1,4] + z[1,5] = 1
 R212: z[2,0] + z[2,1] + z[2,3] + z[2,4] + z[2,5] = 1
 R213: z[3,0] + z[3,1] + z[3,2] + z[3,4] + z[3,5] = 1
 R214: z[4,0] + z[4,1] + z[4,2] + z[4,3] + z[4,5] = 1
 R215: z[5,0] + z[5,1] + z[5,2] + z[5,3] + z[5,4] = 1
 R216: z[1,0] + z[2,0] + z[3,0] + z[4,0] + z[5,0] = 1
 R217: z[0,1] + z[2,1] + z[3,1] + z[4,1] + z[5,1] = 1
 R218: z[0,2] + z[1,2] + z[3,2] + z[4,2] + z[5,2] = 1
 R219: z[0,3] + z[1,3] + z[2,3] + z[4,3] + z[5,3] = 1
 R220: z[0,4] + z[1,4] + z[2,4] + z[3,4] + z[5,4] = 1
 R221: z[0,5] + z[1,5] + z[2,5] + z[3,5] + z[4,5] = 1
 rest7: z[0,1] + z[1,0] <= 1
 rest7: z[0,2] + z[2,0] <= 1
 rest7: z[0,3] + z[3,0] <= 1
 rest7: z[0,4] + z[4,0] <= 1
 rest7: z[0,5] + z[5,0] <= 1
 rest7: z[0,1] + z[1,0] <= 1
 rest7: z[1,2] + z[2,1] <= 1
 rest7: z[1,3] + z[3,1] <= 1
 rest7: z[1,4] + z[4,1] <= 1
 rest7: z[1,5] + z[5,1] <= 1
 rest7: z[0,2] + z[2,0] <= 1
 rest7: z[1,2] + z[2,1] <= 1
 rest7: z[2,3] + z[3,2] <= 1
 rest7: z[2,4] + z[4,2] <= 1
 rest7: z[2,5] + z[5,2] <= 1
 rest7: z[0,3] + z[3,0] <= 1
 rest7: z[1,3] + z[3,1] <= 1
 rest7: z[2,3] + z[3,2] <= 1
 rest7: z[3,4] + z[4,3] <= 1
 rest7: z[3,5] + z[5,3] <= 1
 rest7: z[0,4] + z[4,0] <= 1
 rest7: z[1,4] + z[4,1] <= 1
 rest7: z[2,4] + z[4,2] <= 1
 rest7: z[3,4] + z[4,3] <= 1
 rest7: z[4,5] + z[5,4] <= 1
 rest7: z[0,5] + z[5,0] <= 1
 rest7: z[1,5] + z[5,1] <= 1
 rest7: z[2,5] + z[5,2] <= 1
 rest7: z[3,5] + z[5,3] <= 1
 rest7: z[4,5] + z[5,4] <= 1
 R252: 6 z[1,2] + sc[1] - sc[2] <= 5
 R253: 6 z[1,3] + sc[1] - sc[3] <= 5
 R254: 6 z[1,4] + sc[1] - sc[4] <= 5
 R255: 6 z[1,5] + sc[1] - sc[5] <= 5
 R256: 6 z[2,1] - sc[1] + sc[2] <= 5
 R257: 6 z[2,3] + sc[2] - sc[3] <= 5
 R258: 6 z[2,4] + sc[2] - sc[4] <= 5
 R259: 6 z[2,5] + sc[2] - sc[5] <= 5
 R260: 6 z[3,1] - sc[1] + sc[3] <= 5
 R261: 6 z[3,2] - sc[2] + sc[3] <= 5
 R262: 6 z[3,4] + sc[3] - sc[4] <= 5
 R263: 6 z[3,5] + sc[3] - sc[5] <= 5
 R264: 6 z[4,1] - sc[1] + sc[4] <= 5
 R265: 6 z[4,2] - sc[2] + sc[4] <= 5
 R266: 6 z[4,3] - sc[3] + sc[4] <= 5
 R267: 6 z[4,5] + sc[4] - sc[5] <= 5
 R268: 6 z[5,1] - sc[1] + sc[5] <= 5
 R269: 6 z[5,2] - sc[2] + sc[5] <= 5
 R270: 6 z[5,3] - sc[3] + sc[5] <= 5
 R271: 6 z[5,4] - sc[4] + sc[5] <= 5
 rest10: sc[0] = 0
 rest11: sc[1] >= 1
 rest11: sc[2] >= 1
 rest11: sc[3] >= 1
 rest11: sc[4] >= 1
 rest11: sc[5] >= 1
 R278: dc[0] <= 15.3454006846598
 envConv: mu[0,0] + mu[0,1] + mu[0,2] + mu[0,3] + mu[0,4] + mu[0,5]
   + mu[0,6] + mu[0,7] = 1
 inP1: x[0,0,0] - 59.38393280653329 mu[0,0] - 52.94321416071558 mu[0,1]
   - 47.1520099359537 mu[0,2] - 46.3712150325312 mu[0,3]
   - 51.18878393803845 mu[0,4] - 57.97698900613201 mu[0,5]
   - 61.62417336638906 mu[0,6] - 59.38393280653325 mu[0,7] = 0
 inP1: x[0,1,0] - 59.38393280653329 mu[0,0] - 52.94321416071558 mu[0,1]
   - 47.1520099359537 mu[0,2] - 46.3712150325312 mu[0,3]
   - 51.18878393803845 mu[0,4] - 57.97698900613201 mu[0,5]
   - 61.62417336638906 mu[0,6] - 59.38393280653325 mu[0,7] = 0
 inP1: x[0,0,1] - 93.57124002938116 mu[0,0] - 95.84216652986984 mu[0,1]
   - 92.22250943667598 mu[0,2] - 85.43794436852347 mu[0,3]
   - 80.59738720163706 mu[0,4] - 81.34587621205374 mu[0,5]
   - 87.11978390853643 mu[0,6] - 93.5712400293812 mu[0,7] = 0
 inP1: x[0,1,1] - 93.57124002938116 mu[0,0] - 95.84216652986984 mu[0,1]
   - 92.22250943667598 mu[0,2] - 85.43794436852347 mu[0,3]
   - 80.59738720163706 mu[0,4] - 81.34587621205374 mu[0,5]
   - 87.11978390853643 mu[0,6] - 93.5712400293812 mu[0,7] = 0
 R284: - x[0,0,0] + x[0,1,0] + difc[0,0] >= 0
 R285: x[0,0,0] - x[0,1,0] + difc[0,0] >= 0
 R286: - x[0,0,1] + x[0,1,1] + difc[0,1] >= 0
 R287: x[0,0,1] - x[0,1,1] + difc[0,1] >= 0
 R288: dc[1] <= 16.56133729199017
 envConv: mu[1,0] + mu[1,1] + mu[1,2] + mu[1,3] + mu[1,4] + mu[1,5] = 1
 inP1: x[1,0,0] - 82.19399646904969 mu[1,0] - 72.05311738533464 mu[1,1]
   - 70.23977450394339 mu[1,2] - 79.259946053701 mu[1,3]
   - 86.64806153719725 mu[1,4] - 82.19399646904969 mu[1,5] = 0
 inP1: x[1,1,0] - 82.19399646904969 mu[1,0] - 72.05311738533464 mu[1,1]
   - 70.23977450394339 mu[1,2] - 79.259946053701 mu[1,3]
   - 86.64806153719725 mu[1,4] - 82.19399646904969 mu[1,5] = 0
 inP1: x[1,0,1] - 98.8977200748088 mu[1,0] - 97.50941026276774 mu[1,1]
   - 87.43584980386113 mu[1,2] - 82.59835686457092 mu[1,3]
   - 89.68218226665856 mu[1,4] - 98.8977200748088 mu[1,5] = 0
 inP1: x[1,1,1] - 98.8977200748088 mu[1,0] - 97.50941026276774 mu[1,1]
   - 87.43584980386113 mu[1,2] - 82.59835686457092 mu[1,3]
   - 89.68218226665856 mu[1,4] - 98.8977200748088 mu[1,5] = 0
 R294: - x[1,0,0] + x[1,1,0] + difc[1,0] >= 0
 R295: x[1,0,0] - x[1,1,0] + difc[1,0] >= 0
 R296: - x[1,0,1] + x[1,1,1] + difc[1,1] >= 0
 R297: x[1,0,1] - x[1,1,1] + difc[1,1] >= 0
 R298: dc[2] <= 17.10657191680313
 envConv: mu[2,0] + mu[2,1] + mu[2,2] + mu[2,3] + mu[2,4] + mu[2,5]
   + mu[2,6] + mu[2,7] + mu[2,8] + mu[2,9] = 1
 inP1: x[2,0,0] - 69.45715607433276 mu[2,0] - 73.718446115771 mu[2,1]
   - 74.32180730173201 mu[2,2] - 70.98492022769197 mu[2,3]
   - 65.26915144096313 mu[2,4] - 59.84897268055009 mu[2,5]
   - 57.26054582702708 mu[2,6] - 58.71502457231767 mu[2,7]
   - 63.53184214676979 mu[2,8] - 69.4571560743327 mu[2,9] = 0
 inP1: x[2,1,0] - 69.45715607433276 mu[2,0] - 73.718446115771 mu[2,1]
   - 74.32180730173201 mu[2,2] - 70.98492022769197 mu[2,3]
   - 65.26915144096313 mu[2,4] - 59.84897268055009 mu[2,5]
   - 57.26054582702708 mu[2,6] - 58.71502457231767 mu[2,7]
   - 63.53184214676979 mu[2,8] - 69.4571560743327 mu[2,9] = 0
 inP1: x[2,0,1] - 9.436177908566878 mu[2,0] - 13.57592225133455 mu[2,1]
   - 19.48625484096211 mu[2,2] - 24.40166537273281 mu[2,3]
   - 26.02217863012815 mu[2,4] - 23.58953845001413 mu[2,5]
   - 18.24200420845007 mu[2,6] - 12.48174660828717 mu[2,7]
   - 9.004054198773598 mu[2,8] - 9.436177908566851 mu[2,9] = 0
 inP1: x[2,1,1] - 9.436177908566878 mu[2,0] - 13.57592225133455 mu[2,1]
   - 19.48625484096211 mu[2,2] - 24.40166537273281 mu[2,3]
   - 26.02217863012815 mu[2,4] - 23.58953845001413 mu[2,5]
   - 18.24200420845007 mu[2,6] - 12.48174660828717 mu[2,7]
   - 9.004054198773598 mu[2,8] - 9.436177908566851 mu[2,9] = 0
 R304: - x[2,0,0] + x[2,1,0] + difc[2,0] >= 0
 R305: x[2,0,0] - x[2,1,0] + difc[2,0] >= 0
 R306: - x[2,0,1] + x[2,1,1] + difc[2,1] >= 0
 R307: x[2,0,1] - x[2,1,1] + difc[2,1] >= 0
 R308: dc[3] <= 17.22072717905117
 envConv: mu[3,0] + mu[3,1] + mu[3,2] + mu[3,3] + mu[3,4] + mu[3,5]
   + mu[3,6] + mu[3,7] + mu[3,8] + mu[3,9] = 1
 inP1: x[3,0,0] - 88.87530212489288 mu[3,0] - 94.19984634264581 mu[3,1]
   - 96.52799294819583 mu[3,2] - 94.77037627033837 mu[3,3]
   - 89.74940468637676 mu[3,4] - 83.81444660232997 mu[3,5]
   - 79.74253486543506 mu[3,6] - 79.43896223164383 mu[3,7]
   - 83.04577371014075 mu[3,8] - 88.8753021248927 mu[3,9] = 0
 inP1: x[3,1,0] - 88.87530212489288 mu[3,0] - 94.19984634264581 mu[3,1]
   - 96.52799294819583 mu[3,2] - 94.77037627033837 mu[3,3]
   - 89.74940468637676 mu[3,4] - 83.81444660232997 mu[3,5]
   - 79.74253486543506 mu[3,6] - 79.43896223164383 mu[3,7]
   - 83.04577371014075 mu[3,8] - 88.8753021248927 mu[3,9] = 0
 inP1: x[3,0,1] - 11.26228313164382 mu[3,0] - 13.98587468539944 mu[3,1]
   - 19.49481791087987 mu[3,2] - 25.21141704779795 mu[3,3]
   - 28.46081182706767 mu[3,4] - 27.72257431846843 mu[3,5]
   - 23.34213405686934 mu[3,6] - 17.36914772384394 mu[3,7]
   - 12.59844200696326 mu[3,8] - 11.2622831316438 mu[3,9] = 0
 inP1: x[3,1,1] - 11.26228313164382 mu[3,0] - 13.98587468539944 mu[3,1]
   - 19.49481791087987 mu[3,2] - 25.21141704779795 mu[3,3]
   - 28.46081182706767 mu[3,4] - 27.72257431846843 mu[3,5]
   - 23.34213405686934 mu[3,6] - 17.36914772384394 mu[3,7]
   - 12.59844200696326 mu[3,8] - 11.2622831316438 mu[3,9] = 0
 R314: - x[3,0,0] + x[3,1,0] + difc[3,0] >= 0
 R315: x[3,0,0] - x[3,1,0] + difc[3,0] >= 0
 R316: - x[3,0,1] + x[3,1,1] + difc[3,1] >= 0
 R317: x[3,0,1] - x[3,1,1] + difc[3,1] >= 0
 R318: dc[4] <= 16.04057536063259
 envConv: mu[4,0] + mu[4,1] + mu[4,2] + mu[4,3] + mu[4,4] + mu[4,5] = 1
 inP1: x[4,0,0] - 47.78099107156426 mu[4,0] - 56.38851637994641 mu[4,1]
   - 63.72603788869504 mu[4,2] - 59.65335026590286 mu[4,3]
   - 49.79876938070805 mu[4,4] - 47.78099107156419 mu[4,5] = 0
 inP1: x[4,1,0] - 47.78099107156426 mu[4,0] - 56.38851637994641 mu[4,1]
   - 63.72603788869504 mu[4,2] - 59.65335026590286 mu[4,3]
   - 49.79876938070805 mu[4,4] - 47.78099107156419 mu[4,5] = 0
 inP1: x[4,0,1] - 81.24441279252378 mu[4,0] - 76.32604061505533 mu[4,1]
   - 82.99242306126902 mu[4,2] - 92.03084617250309 mu[4,3]
   - 90.95051641373483 mu[4,4] - 81.24441279252393 mu[4,5] = 0
 inP1: x[4,1,1] - 81.24441279252378 mu[4,0] - 76.32604061505533 mu[4,1]
   - 82.99242306126902 mu[4,2] - 92.03084617250309 mu[4,3]
   - 90.95051641373483 mu[4,4] - 81.24441279252393 mu[4,5] = 0
 R324: - x[4,0,0] + x[4,1,0] + difc[4,0] >= 0
 R325: x[4,0,0] - x[4,1,0] + difc[4,0] >= 0
 R326: - x[4,0,1] + x[4,1,1] + difc[4,1] >= 0
 R327: x[4,0,1] - x[4,1,1] + difc[4,1] >= 0
 R328: dc[5] <= 13.75996656358622
 envConv: mu[5,0] + mu[5,1] + mu[5,2] + mu[5,3] + mu[5,4] + mu[5,5] = 1
 inP1: x[5,0,0] - 59.4451985536498 mu[5,0] - 50.95196421365426 mu[5,1]
   - 47.91818329642619 mu[5,2] - 54.53643791515398 mu[5,3]
   - 61.66052513295672 mu[5,4] - 59.44519855364992 mu[5,5] = 0
 inP1: x[5,1,0] - 59.4451985536498 mu[5,0] - 50.95196421365426 mu[5,1]
   - 47.91818329642619 mu[5,2] - 54.53643791515398 mu[5,3]
   - 61.66052513295672 mu[5,4] - 59.44519855364992 mu[5,5] = 0
 inP1: x[5,0,1] - 87.86887017603952 mu[5,0] - 88.29915708533358 mu[5,1]
   - 80.35457718928797 mu[5,2] - 75.01426987789873 mu[5,3]
   - 79.65835834513628 mu[5,4] - 87.86887017603942 mu[5,5] = 0
 inP1: x[5,1,1] - 87.86887017603952 mu[5,0] - 88.29915708533358 mu[5,1]
   - 80.35457718928797 mu[5,2] - 75.01426987789873 mu[5,3]
   - 79.65835834513628 mu[5,4] - 87.86887017603942 mu[5,5] = 0
 R334: - x[5,0,0] + x[5,1,0] + difc[5,0] >= 0
 R335: x[5,0,0] - x[5,1,0] + difc[5,0] >= 0
 R336: - x[5,0,1] + x[5,1,1] + difc[5,1] >= 0
 R337: x[5,0,1] - x[5,1,1] + difc[5,1] >= 0
 qc0: [ - dcc[0,1] ^2 + dif[0,1,0] ^2 + dif[0,1,1] ^2 ] <= 0
 qc1: [ - dcc[0,2] ^2 + dif[0,2,0] ^2 + dif[0,2,1] ^2 ] <= 0
 qc2: [ - dcc[0,3] ^2 + dif[0,3,0] ^2 + dif[0,3,1] ^2 ] <= 0
 qc3: [ - dcc[0,4] ^2 + dif[0,4,0] ^2 + dif[0,4,1] ^2 ] <= 0
 qc4: [ - dcc[0,5] ^2 + dif[0,5,0] ^2 + dif[0,5,1] ^2 ] <= 0
 qc5: [ - dcc[1,0] ^2 + dif[1,0,0] ^2 + dif[1,0,1] ^2 ] <= 0
 qc6: [ - dcc[1,2] ^2 + dif[1,2,0] ^2 + dif[1,2,1] ^2 ] <= 0
 qc7: [ - dcc[1,3] ^2 + dif[1,3,0] ^2 + dif[1,3,1] ^2 ] <= 0
 qc8: [ - dcc[1,4] ^2 + dif[1,4,0] ^2 + dif[1,4,1] ^2 ] <= 0
 qc9: [ - dcc[1,5] ^2 + dif[1,5,0] ^2 + dif[1,5,1] ^2 ] <= 0
 qc10: [ - dcc[2,0] ^2 + dif[2,0,0] ^2 + dif[2,0,1] ^2 ] <= 0
 qc11: [ - dcc[2,1] ^2 + dif[2,1,0] ^2 + dif[2,1,1] ^2 ] <= 0
 qc12: [ - dcc[2,3] ^2 + dif[2,3,0] ^2 + dif[2,3,1] ^2 ] <= 0
 qc13: [ - dcc[2,4] ^2 + dif[2,4,0] ^2 + dif[2,4,1] ^2 ] <= 0
 qc14: [ - dcc[2,5] ^2 + dif[2,5,0] ^2 + dif[2,5,1] ^2 ] <= 0
 qc15: [ - dcc[3,0] ^2 + dif[3,0,0] ^2 + dif[3,0,1] ^2 ] <= 0
 qc16: [ - dcc[3,1] ^2 + dif[3,1,0] ^2 + dif[3,1,1] ^2 ] <= 0
 qc17: [ - dcc[3,2] ^2 + dif[3,2,0] ^2 + dif[3,2,1] ^2 ] <= 0
 qc18: [ - dcc[3,4] ^2 + dif[3,4,0] ^2 + dif[3,4,1] ^2 ] <= 0
 qc19: [ - dcc[3,5] ^2 + dif[3,5,0] ^2 + dif[3,5,1] ^2 ] <= 0
 qc20: [ - dcc[4,0] ^2 + dif[4,0,0] ^2 + dif[4,0,1] ^2 ] <= 0
 qc21: [ - dcc[4,1] ^2 + dif[4,1,0] ^2 + dif[4,1,1] ^2 ] <= 0
 qc22: [ - dcc[4,2] ^2 + dif[4,2,0] ^2 + dif[4,2,1] ^2 ] <= 0
 qc23: [ - dcc[4,3] ^2 + dif[4,3,0] ^2 + dif[4,3,1] ^2 ] <= 0
 qc24: [ - dcc[4,5] ^2 + dif[4,5,0] ^2 + dif[4,5,1] ^2 ] <= 0
 qc25: [ - dcc[5,0] ^2 + dif[5,0,0] ^2 + dif[5,0,1] ^2 ] <= 0
 qc26: [ - dcc[5,1] ^2 + dif[5,1,0] ^2 + dif[5,1,1] ^2 ] <= 0
 qc27: [ - dcc[5,2] ^2 + dif[5,2,0] ^2 + dif[5,2,1] ^2 ] <= 0
 qc28: [ - dcc[5,3] ^2 + dif[5,3,0] ^2 + dif[5,3,1] ^2 ] <= 0
 qc29: [ - dcc[5,4] ^2 + dif[5,4,0] ^2 + dif[5,4,1] ^2 ] <= 0
 qc30: [ - dc[0] ^2 + difc[0,0] ^2 + difc[0,1] ^2 ] <= 0
 qc31: [ - dc[1] ^2 + difc[1,0] ^2 + difc[1,1] ^2 ] <= 0
 qc32: [ - dc[2] ^2 + difc[2,0] ^2 + difc[2,1] ^2 ] <= 0
 qc33: [ - dc[3] ^2 + difc[3,0] ^2 + difc[3,1] ^2 ] <= 0
 qc34: [ - dc[4] ^2 + difc[4,0] ^2 + difc[4,1] ^2 ] <= 0
 qc35: [ - dc[5] ^2 + difc[5,0] ^2 + difc[5,1] ^2 ] <= 0
Bounds
 mu[0,0] <= 1
 mu[0,1] <= 1
 mu[0,2] <= 1
 mu[0,3] <= 1
 mu[0,4] <= 1
 mu[0,5] <= 1
 mu[0,6] <= 1
 mu[0,7] <= 1
 mu[1,0] <= 1
 mu[1,1] <= 1
 mu[1,2] <= 1
 mu[1,3] <= 1
 mu[1,4] <= 1
 mu[1,5] <= 1
 mu[2,0] <= 1
 mu[2,1] <= 1
 mu[2,2] <= 1
 mu[2,3] <= 1
 mu[2,4] <= 1
 mu[2,5] <= 1
 mu[2,6] <= 1
 mu[2,7] <= 1
 mu[2,8] <= 1
 mu[2,9] <= 1
 mu[3,0] <= 1
 mu[3,1] <= 1
 mu[3,2] <= 1
 mu[3,3] <= 1
 mu[3,4] <= 1
 mu[3,5] <= 1
 mu[3,6] <= 1
 mu[3,7] <= 1
 mu[3,8] <= 1
 mu[3,9] <= 1
 mu[4,0] <= 1
 mu[4,1] <= 1
 mu[4,2] <= 1
 mu[4,3] <= 1
 mu[4,4] <= 1
 mu[4,5] <= 1
 mu[5,0] <= 1
 mu[5,1] <= 1
 mu[5,2] <= 1
 mu[5,3] <= 1
 mu[5,4] <= 1
 mu[5,5] <= 1
 sc[0] <= 5
 sc[1] <= 5
 sc[2] <= 5
 sc[3] <= 5
 sc[4] <= 5
 sc[5] <= 5
Binaries
 z[0,1] z[0,2] z[0,3] z[0,4] z[0,5] z[1,0] z[1,2] z[1,3] z[1,4] z[1,5]
 z[2,0] z[2,1] z[2,3] z[2,4] z[2,5] z[3,0] z[3,1] z[3,2] z[3,4] z[3,5]
 z[4,0] z[4,1] z[4,2] z[4,3] z[4,5] z[5,0] z[5,1] z[5,2] z[5,3] z[5,4]
End
